Total weight: 1269.8
Route 1: 0 27 28 26 21 72 4 54 0 
Route 2: 0 2 42 15 41 22 75 74 73 40 0 
Route 3: 0 76 33 81 78 34 29 68 0 
Route 4: 0 39 23 57 87 97 95 94 13 0 
Route 5: 0 10 63 64 90 32 70 0 
Route 6: 0 18 8 45 61 84 5 60 89 0 
Route 7: 0 96 85 91 16 86 17 93 99 0 
Route 8: 0 82 48 47 36 49 46 83 0 
Route 9: 0 56 67 25 55 24 80 0 
Route 10: 0 65 71 9 79 3 77 12 0 
Route 11: 0 1 69 31 30 51 20 66 35 50 0 
Route 12: 0 92 37 14 44 38 43 100 98 59 6 0 
Route 13: 0 52 7 62 19 11 88 0 
Route 14: 0 53 58 0 
